data/solutions/recovery/wellformed/moderate/flexible/wellformed_moderate_instance11/25.sol
Elapsed time: 1.06
Upper bound: 11158.0
Planning weighted value: 74722.0
C[0]=11158.0
C[1]=11157.0
C[2]=11157.0
y[0]=0
y[1]=2
y[2]=2
y[3]=2
y[4]=1
y[5]=1
y[6]=0
y[7]=2
y[8]=1
y[9]=0
y[10]=2
y[11]=1
y[12]=1
y[13]=0
y[14]=2
y[15]=2
y[16]=1
y[17]=2
y[18]=2
y[19]=1
y[20]=2
y[21]=1
y[22]=0
y[23]=1
y[24]=2
y[25]=0
y[26]=2
y[27]=1
y[28]=0
y[29]=0
y[30]=0
y[31]=1
y[32]=0
